(set-option :print-success false)
(set-logic QF_UF)
(declare-sort x100 0)
(declare-sort x30 0)
(declare-fun x114 () x30)
(declare-fun x69 (x30 x30) x30)
(declare-fun x35 (x30 x30) x30)
(declare-fun x157 () x30)
(declare-fun x58 () x30)
(declare-fun x8 () x30)
(declare-fun x84 () x30)
(assert (let ((x10 (x35 x8 x114)) (x125 (x35 x8 x84)) (x5 (x35 x84 x58)) (x159 (x35 x157 x157)) (x43 (x35 x58 x8)) (x46 (x35 x157 x8)) (x12 (x35 x58 x114)) (x71 (x35 x114 x157)) (x152 (x35 x84 x114)) (x13 (x35 x157 x58)) (x27 (x35 x114 x8)) (x115 (x35 x84 x8)) (x86 (x35 x84 x157)) (x136 (x35 x8 x157)) (x6 (x35 x114 x114)) (x87 (x35 x8 x58)) (x61 (x35 x114 x84)) (x39 (x35 x157 x84)) (x109 (x35 x58 x58)) (x11 (x35 x114 x58)) (x122 (x35 x84 x84)) (x40 (x35 x58 x157)) (x156 (x35 x58 x84)) (x131 (x35 x8 x8)) (x20 (x35 x157 x114))) (or (or (and (and (and (and (not (= (x35 x61 x61) x114)) (not (= (x35 x39 x39) x157))) (not (= (x35 x125 x125) x8))) (not (= x84 (x35 x122 x122)))) (not (= x58 (x35 x156 x156)))) (or (and (and (and (and (not (= x114 (x35 x27 x27))) (not (= (x35 x46 x46) x157))) (not (= x8 (x35 x131 x131)))) (not (= x84 (x35 x115 x115)))) (not (= x58 (x35 x43 x43)))) (or (and (not (= x58 (x35 x40 x40))) (and (not (= (x35 x86 x86) x84)) (and (and (not (= x157 (x35 x159 x159))) (not (= (x35 x71 x71) x114))) (not (= x8 (x35 x136 x136)))))) (and (not (= x58 (x35 x12 x12))) (and (and (and (not (= x114 (x35 x6 x6))) (not (= (x35 x20 x20) x157))) (not (= x8 (x35 x10 x10)))) (not (= (x35 x152 x152) x84))))))) (and (not (= x58 (x35 x109 x109))) (and (not (= (x35 x5 x5) x84)) (and (and (not (= (x35 x13 x13) x157)) (not (= (x35 x11 x11) x114))) (not (= (x35 x87 x87) x8))))))))
(assert (and (and (and (or (= x8 (x35 x58 (x35 x8 x58))) (or (or (or (= x8 (x35 x114 (x35 x8 x114))) (= (x35 x157 (x35 x8 x157)) x8)) (= x8 (x35 x8 (x35 x8 x8)))) (= (x35 x84 (x35 x8 x84)) x8))) (and (or (= x157 (x35 x58 (x35 x157 x58))) (or (= x157 (x35 x84 (x35 x157 x84))) (or (or (= x157 (x35 x114 (x35 x157 x114))) (= (x35 x157 (x35 x157 x157)) x157)) (= x157 (x35 x8 (x35 x157 x8)))))) (or (or (= (x35 x84 (x35 x114 x84)) x114) (or (or (= x114 (x35 x157 (x35 x114 x157))) (= x114 (x35 x114 (x35 x114 x114)))) (= (x35 x8 (x35 x114 x8)) x114))) (= x114 (x35 x58 (x35 x114 x58)))))) (or (or (= x84 (x35 x84 (x35 x84 x84))) (or (= (x35 x8 (x35 x84 x8)) x84) (or (= x84 (x35 x157 (x35 x84 x157))) (= x84 (x35 x114 (x35 x84 x114)))))) (= x84 (x35 x58 (x35 x84 x58))))) (or (= x58 (x35 x58 (x35 x58 x58))) (or (or (= x58 (x35 x8 (x35 x58 x8))) (or (= x58 (x35 x114 (x35 x58 x114))) (= (x35 x157 (x35 x58 x157)) x58))) (= x58 (x35 x84 (x35 x58 x84)))))))
(assert (let ((x5 (x35 x84 x58)) (x13 (x35 x157 x58)) (x40 (x35 x58 x157)) (x71 (x35 x114 x157)) (x115 (x35 x84 x8)) (x86 (x35 x84 x157)) (x122 (x35 x84 x84)) (x131 (x35 x8 x8)) (x87 (x35 x8 x58)) (x39 (x35 x157 x84)) (x125 (x35 x8 x84)) (x136 (x35 x8 x157)) (x152 (x35 x84 x114)) (x27 (x35 x114 x8)) (x156 (x35 x58 x84)) (x12 (x35 x58 x114)) (x20 (x35 x157 x114)) (x61 (x35 x114 x84)) (x6 (x35 x114 x114)) (x43 (x35 x58 x8)) (x159 (x35 x157 x157)) (x109 (x35 x58 x58)) (x11 (x35 x114 x58)) (x10 (x35 x8 x114)) (x46 (x35 x157 x8))) (and (and (and (not (= x109 x156)) (and (and (and (not (= x40 x109)) (and (not (= x156 x40)) (and (not (= x43 x40)) (and (not (= x109 x12)) (and (and (not (= x40 x12)) (not (= x43 x12))) (not (= x156 x12))))))) (not (= x43 x156))) (not (= x109 x43)))) (and (and (and (not (= x87 x125)) (and (and (and (not (= x87 x136)) (and (not (= x136 x125)) (and (and (and (and (not (= x131 x10)) (not (= x10 x136))) (not (= x10 x125))) (not (= x10 x87))) (not (= x136 x131))))) (not (= x125 x131))) (not (= x87 x131)))) (and (and (and (not (= x27 x11)) (and (not (= x27 x61)) (and (not (= x11 x71)) (and (and (not (= x27 x71)) (and (not (= x11 x6)) (and (not (= x6 x61)) (and (not (= x27 x6)) (not (= x71 x6)))))) (not (= x71 x61)))))) (not (= x61 x11))) (and (not (= x13 x39)) (and (and (and (and (not (= x159 x39)) (and (and (not (= x20 x13)) (and (and (not (= x20 x159)) (not (= x46 x20))) (not (= x39 x20)))) (not (= x159 x46)))) (not (= x159 x13))) (not (= x46 x39))) (not (= x13 x46)))))) (and (and (and (not (= x122 x115)) (and (and (not (= x86 x122)) (and (and (and (and (not (= x152 x86)) (not (= x152 x115))) (not (= x122 x152))) (not (= x5 x152))) (not (= x115 x86)))) (not (= x5 x86)))) (not (= x115 x5))) (not (= x122 x5))))) (and (and (and (and (and (not (= x12 x152)) (and (and (and (not (= x12 x20)) (and (not (= x152 x20)) (and (not (= x20 x10)) (and (and (not (= x152 x6)) (and (not (= x6 x10)) (not (= x6 x20)))) (not (= x12 x6)))))) (not (= x10 x152))) (not (= x10 x12)))) (and (not (= x40 x86)) (and (and (and (and (and (not (= x159 x136)) (and (and (and (not (= x159 x71)) (not (= x71 x136))) (not (= x86 x71))) (not (= x71 x40)))) (not (= x159 x86))) (not (= x40 x159))) (not (= x86 x136))) (not (= x136 x40))))) (and (and (and (and (and (not (= x115 x46)) (and (not (= x131 x46)) (and (and (not (= x27 x115)) (and (not (= x46 x27)) (not (= x27 x131)))) (not (= x43 x27))))) (not (= x43 x46))) (not (= x115 x131))) (not (= x43 x131))) (not (= x43 x115)))) (and (not (= x122 x156)) (and (not (= x125 x156)) (and (and (not (= x156 x39)) (and (not (= x39 x122)) (and (and (and (and (not (= x39 x61)) (not (= x61 x125))) (not (= x61 x122))) (not (= x156 x61))) (not (= x125 x39))))) (not (= x122 x125)))))) (and (not (= x109 x5)) (and (and (and (not (= x109 x13)) (and (and (and (not (= x109 x11)) (and (and (not (= x11 x13)) (not (= x87 x11))) (not (= x5 x11)))) (not (= x87 x13))) (not (= x13 x5)))) (not (= x5 x87))) (not (= x109 x87))))))))
(assert (and (not (= x84 x58)) (and (not (= x8 x58)) (and (not (= x8 x84)) (and (not (= x157 x58)) (and (not (= x84 x157)) (and (and (not (= x58 x114)) (and (and (not (= x157 x114)) (not (= x8 x114))) (not (= x84 x114)))) (not (= x157 x8)))))))))
(assert (not (and (and (and (= (x35 x58 x8) x8) (and (and (= x58 (x35 x58 x114)) (and (and (and (and (= x8 (x35 x84 x157)) (and (and (= x8 (x35 x8 x58)) (and (and (and (= (x35 x8 x157) x58) (and (and (= (x35 x157 x58) x84) (and (= (x35 x157 x84) x114) (and (= (x35 x157 x8) x58) (and (= (x35 x157 x157) x157) (and (and (= x58 (x35 x114 x58)) (and (and (= x84 (x35 x114 x8)) (and (= x114 (x35 x114 x157)) (= (x35 x114 x114) x157))) (= (x35 x114 x84) x8))) (= (x35 x157 x114) x8)))))) (= x114 (x35 x8 x114)))) (= x157 (x35 x8 x8))) (= x84 (x35 x8 x84)))) (= (x35 x84 x114) x84))) (= (x35 x84 x8) x114)) (= (x35 x84 x84) x58)) (= x157 (x35 x84 x58)))) (= (x35 x58 x157) x84))) (= x157 (x35 x58 x84))) (= x114 (x35 x58 x58)))))
(assert (let ((x86 (x35 x8 x8)) (x46 (x35 x84 x157)) (x61 (x35 x84 x84)) (x10 (x35 x114 x157)) (x131 (x35 x157 x84)) (x43 (x35 x8 x84)) (x71 (x35 x114 x8)) (x39 (x35 x58 x114)) (x5 (x35 x84 x58)) (x20 (x35 x157 x114)) (x40 (x35 x84 x114)) (x152 (x35 x157 x157)) (x109 (x35 x58 x58)) (x6 (x35 x114 x114)) (x27 (x35 x114 x84)) (x122 (x35 x58 x157)) (x156 (x35 x157 x58)) (x11 (x35 x58 x8)) (x125 (x35 x114 x58)) (x115 (x35 x84 x8)) (x12 (x35 x8 x114)) (x87 (x35 x58 x84)) (x13 (x35 x8 x58)) (x159 (x35 x8 x157)) (x136 (x35 x157 x8))) (or (or (or (or (and (and (and (= x136 x159) (and (= x152 x152) (= x10 x20))) (= x131 x46)) (= x122 x156)) (and (and (and (and (= x20 x10) (= x6 x6)) (= x12 x71)) (= x27 x40)) (= x125 x39))) (and (and (= x115 x43) (and (= x86 x86) (and (= x12 x71) (= x136 x159)))) (= x13 x11))) (and (and (and (and (= x27 x40) (= x46 x131)) (= x43 x115)) (= x61 x61)) (= x87 x5))) (and (and (= x5 x87) (and (= x11 x13) (and (= x39 x125) (= x156 x122)))) (= x109 x109)))))
(assert (or (or (and (and (not (= x84 (x35 (x35 x84 x84) x84))) (and (not (= (x35 (x35 x84 x8) x84) x8)) (and (not (= x157 (x35 (x35 x84 x157) x84))) (not (= x114 (x35 (x35 x84 x114) x84)))))) (not (= (x35 (x35 x84 x58) x84) x58))) (or (and (not (= x58 (x35 (x35 x8 x58) x8))) (and (not (= (x35 (x35 x8 x84) x8) x84)) (and (not (= (x35 (x35 x8 x8) x8) x8)) (and (not (= x157 (x35 (x35 x8 x157) x8))) (not (= (x35 (x35 x8 x114) x8) x114)))))) (or (and (and (and (not (= (x35 (x35 x157 x8) x157) x8)) (and (not (= x114 (x35 (x35 x157 x114) x157))) (not (= (x35 (x35 x157 x157) x157) x157)))) (not (= (x35 (x35 x157 x84) x157) x84))) (not (= (x35 (x35 x157 x58) x157) x58))) (and (not (= x58 (x35 (x35 x114 x58) x114))) (and (and (and (not (= (x35 (x35 x114 x157) x114) x157)) (not (= (x35 (x35 x114 x114) x114) x114))) (not (= x8 (x35 (x35 x114 x8) x114)))) (not (= x84 (x35 (x35 x114 x84) x114)))))))) (and (and (not (= (x35 (x35 x58 x84) x58) x84)) (and (not (= (x35 (x35 x58 x8) x58) x8)) (and (not (= (x35 (x35 x58 x157) x58) x157)) (not (= x114 (x35 (x35 x58 x114) x58)))))) (not (= (x35 (x35 x58 x58) x58) x58)))))
(assert (and (and (and (= x114 (x35 x58 x58)) (= x157 (x35 x8 x8))) (= (x35 x114 x84) x8)) (= (x35 x84 x84) x58)))
(assert (or (or (or (= (x35 x8 x8) x8) (or (= x157 (x35 x157 x157)) (= x114 (x35 x114 x114)))) (= x84 (x35 x84 x84))) (= (x35 x58 x58) x58)))
(assert (let ((x13 (x35 x157 x58)) (x127 (x35 x58 x157)) (x38 (x35 x58 x84)) (x42 (x35 x58 x58)) (x12 (x35 x114 x84)) (x71 (x35 x114 x58)) (x112 (x35 x8 x8)) (x86 (x35 x8 x114)) (x10 (x35 x114 x157)) (x156 (x35 x157 x8)) (x20 (x35 x114 x114)) (x11 (x35 x157 x84)) (x152 (x35 x114 x8)) (x40 (x35 x84 x114)) (x24 (x35 x84 x84)) (x34 (x35 x84 x58)) (x142 (x35 x84 x8)) (x70 (x35 x58 x8)) (x113 (x35 x8 x58)) (x136 (x35 x157 x114)) (x27 (x35 x58 x114)) (x19 (x35 x84 x157)) (x122 (x35 x157 x157)) (x140 (x35 x8 x84)) (x109 (x35 x8 x157))) (let ((x33 (= x84 x122)) (x143 (= x58 x140)) (x139 (= x84 x112)) (x102 (= x58 x10)) (x61 (= x10 x114)) (x47 (= x27 x58)) (x123 (= x13 x8)) (x29 (= x114 x156)) (x17 (= x86 x8)) (x121 (= x19 x114)) (x146 (= x13 x84)) (x75 (= x157 x42)) (x59 (= x114 x34)) (x154 (= x113 x8)) (x124 (= x40 x157)) (x116 (= x84 x156)) (x83 (= x84 x140)) (x85 (= x84 x70)) (x158 (= x58 x24)) (x133 (= x8 x34)) (x120 (= x157 x24)) (x94 (= x157 x112)) (x36 (= x58 x11)) (x108 (= x84 x113)) (x119 (= x156 x157)) (x48 (= x140 x157)) (x135 (= x157 x38)) (x147 (= x157 x13)) (x54 (= x11 x8)) (x5 (= x122 x157)) (x66 (= x12 x114)) (x79 (= x113 x114)) (x68 (= x8 x122)) (x110 (= x11 x84)) (x130 (= x19 x84)) (x21 (= x71 x84)) (x73 (= x109 x58)) (x153 (= x114 x142)) (x80 (= x152 x114)) (x150 (= x157 x70)) (x128 (= x140 x114)) (x7 (= x34 x157)) (x6 (= x114 x20)) (x51 (= x127 x157)) (x134 (= x34 x58)) (x93 (= x71 x157)) (x138 (= x114 x42)) (x99 (= x114 x86)) (x4 (= x84 x109)) (x41 (= x127 x58)) (x25 (= x156 x58)) (x145 (= x157 x113)) (x149 (= x8 x152)) (x82 (= x112 x58)) (x3 (= x8 x142)) (x22 (= x24 x8)) (x62 (= x84 x24)) (x43 (= x136 x114)) (x81 (= x84 x12)) (x92 (= x140 x8)) (x39 (= x122 x114)) (x105 (= x70 x114)) (x32 (= x156 x8)) (x91 (= x27 x157)) (x88 (= x109 x114)) (x101 (= x10 x8)) (x49 (= x114 x24)) (x104 (= x19 x8)) (x46 (= x20 x8)) (x14 (= x13 x58)) (x129 (= x152 x58)) (x77 (= x84 x42)) (x131 (= x84 x20)) (x45 (= x12 x8)) (x132 (= x114 x27)) (x89 (= x40 x84)) (x63 (= x8 x127)) (x144 (= x38 x114)) (x87 (= x157 x10)) (x9 (= x114 x11)) (x74 (= x19 x157)) (x118 (= x84 x142)) (x148 (= x8 x136)) (x31 (= x8 x40)) (x137 (= x127 x84)) (x98 (= x142 x58)) (x115 (= x58 x20)) (x151 (= x114 x127)) (x56 (= x58 x40)) (x90 (= x38 x8)) (x72 (= x58 x113)) (x23 (= x84 x27)) (x64 (= x157 x109)) (x107 (= x8 x71)) (x106 (= x86 x157)) (x60 (= x112 x114)) (x55 (= x71 x58)) (x26 (= x152 x157)) (x57 (= x86 x84)) (x159 (= x157 x20)) (x155 (= x13 x114)) (x117 (= x152 x84)) (x2 (= x58 x136)) (x126 (= x114 x71)) (x37 (= x112 x8)) (x16 (= x58 x19)) (x103 (= x157 x142)) (x95 (= x12 x157)) (x111 (= x38 x84)) (x141 (= x58 x42)) (x52 (= x58 x38)) (x67 (= x42 x8)) (x65 (= x84 x136)) (x44 (= x8 x27)) (x50 (= x8 x70)) (x76 (= x84 x34)) (x125 (= x157 x136)) (x15 (= x109 x8)) (x97 (= x122 x58)) (x96 (= x58 x70)) (x1 (= x86 x58)) (x28 (= x114 x40)) (x78 (= x12 x58)) (x18 (= x11 x157)) (x53 (= x10 x84))) (and (and (and (and (and (and (and (or (or (or x57 (or x65 x131)) x89) x23) (or (or (or x117 (or x53 x131)) x81) x21)) (and (and (or (or x45 (or (or x101 x46) x149)) x107) (or (or x31 (or (or x46 x148) x17)) x44)) (and (and (or x93 (or x95 (or (or x159 x87) x26))) (or (or (or (or x159 x125) x106) x124) x91)) (and (or (or x28 (or x99 (or x43 x6))) x132) (or (or x66 (or (or x61 x6) x80)) x126))))) (and (or (or (or x129 (or x115 x102)) x78) x55) (or (or x56 (or (or x2 x115) x1)) x47))) (and (and (or (or x36 (or x25 (or x97 x2))) x14) (or (or (or (or x102 x97) x73) x16) x41)) (and (and (and (or (or x104 (or (or x68 x101) x15)) x63) (or (or (or (or x68 x148) x32) x54) x123)) (and (and (or (or (or x88 (or x61 x39)) x121) x151) (or (or (or x29 (or x43 x39)) x9) x155)) (and (or x147 (or x18 (or x119 (or x5 x125)))) (or x51 (or (or x64 (or x5 x87)) x74))))) (and (or x146 (or x110 (or (or x65 x33) x116))) (or x137 (or (or (or x33 x53) x4) x130)))))) (and (and (or (or (or x82 (or x25 x129)) x98) x96) (or (or x143 (or (or x73 x1) x82)) x72)) (and (and (and (and (or (or x103 (or (or x26 x119) x94)) x150) (or (or (or x94 (or x106 x64)) x48) x145)) (and (or x105 (or (or (or x80 x29) x60) x153)) (or (or (or (or x88 x99) x60) x128) x79))) (and (or x154 (or (or (or x15 x17) x37) x92)) (or (or x3 (or (or x149 x32) x37)) x50))) (and (or (or (or (or x117 x116) x139) x118) x85) (or (or (or x139 (or x57 x4)) x83) x108))))) (and (and (or (or (or x98 (or x16 x56)) x158) x134) (or x52 (or x158 (or (or x78 x36) x143)))) (and (and (and (or x133 (or x22 (or x3 (or x104 x31)))) (or (or (or x92 (or x45 x54)) x22) x90)) (and (and (or x7 (or x120 (or (or x124 x74) x103))) (or (or x120 (or x48 (or x18 x95))) x135)) (and (or x59 (or x49 (or x153 (or x28 x121)))) (or x144 (or (or x128 (or x66 x9)) x49))))) (and (or (or (or x118 (or x130 x89)) x62) x76) (or x111 (or x62 (or x83 (or x81 x110)))))))) (and (and (or x141 (or (or (or x14 x55) x72) x134)) (or x141 (or x52 (or (or x47 x41) x96)))) (and (and (or (or (or (or x23 x137) x85) x111) x77) (or x77 (or x76 (or (or x21 x146) x108)))) (and (and (or x67 (or (or (or x123 x107) x154) x133)) (or (or (or (or x63 x44) x50) x90) x67)) (and (and (or x138 (or (or (or x126 x155) x79) x59)) (or x138 (or (or x105 (or x151 x132)) x144))) (and (or (or (or (or x147 x93) x145) x7) x75) (or (or x135 (or x150 (or x91 x51))) x75))))))))))
(assert (let ((x152 (x35 x84 x84)) (x12 (x35 x58 x58)) (x10 (x35 x8 x8)) (x20 (x35 x157 x157)) (x6 (x35 x114 x114))) (or (and (not (= x58 x12)) (and (not (= x152 x58)) (and (and (not (= x6 x58)) (not (= x58 x20))) (not (= x58 x10))))) (or (or (and (not (= x8 x12)) (and (and (and (not (= x8 x6)) (not (= x20 x8))) (not (= x8 x10))) (not (= x8 x152)))) (or (and (not (= x12 x157)) (and (and (not (= x10 x157)) (and (not (= x20 x157)) (not (= x157 x6)))) (not (= x152 x157)))) (and (and (and (not (= x114 x10)) (and (not (= x114 x6)) (not (= x20 x114)))) (not (= x152 x114))) (not (= x114 x12))))) (and (not (= x84 x12)) (and (not (= x152 x84)) (and (not (= x84 x10)) (and (not (= x6 x84)) (not (= x84 x20))))))))))
(assert (let ((x102 (x35 x58 x114)) (x101 (x35 x157 x114)) (x32 (x35 x58 x8)) (x149 (x35 x8 x58)) (x142 (x35 x8 x8)) (x53 (x35 x114 x84)) (x60 (x35 x8 x157)) (x19 (x35 x114 x114)) (x68 (x35 x114 x8)) (x106 (x35 x157 x84)) (x1 (x35 x84 x84)) (x112 (x35 x157 x58)) (x65 (x35 x8 x114)) (x29 (x35 x157 x8)) (x2 (x35 x114 x58)) (x148 (x35 x114 x157)) (x33 (x35 x84 x114)) (x25 (x35 x58 x84)) (x17 (x35 x8 x84)) (x64 (x35 x84 x157)) (x88 (x35 x157 x157)) (x140 (x35 x58 x157)) (x129 (x35 x84 x58)) (x15 (x35 x84 x8)) (x124 (x35 x58 x58))) (let ((x95 (= x88 x8)) (x50 (= x19 x58)) (x122 (= x140 x114)) (x120 (= x8 x60)) (x108 (= x15 x58)) (x21 (= x64 x58)) (x107 (= x148 x58)) (x47 (= x58 x102)) (x118 (= x8 x2)) (x48 (= x68 x8)) (x34 (= x148 x8)) (x74 (= x157 x124)) (x70 (= x142 x157)) (x80 (= x88 x157)) (x89 (= x1 x8)) (x126 (= x84 x142)) (x159 (= x60 x114)) (x23 (= x29 x58)) (x155 (= x33 x84)) (x133 (= x58 x68)) (x52 (= x112 x58)) (x4 (= x157 x64)) (x7 (= x84 x149)) (x45 (= x64 x8)) (x141 (= x58 x124)) (x51 (= x84 x17)) (x77 (= x1 x58)) (x86 (= x114 x142)) (x81 (= x140 x8)) (x96 (= x140 x58)) (x75 (= x25 x84)) (x130 (= x8 x102)) (x40 (= x33 x114)) (x24 (= x101 x8)) (x82 (= x157 x102)) (x139 (= x17 x157)) (x147 (= x84 x112)) (x87 (= x25 x114)) (x135 (= x84 x102)) (x83 (= x32 x8)) (x90 (= x58 x101)) (x137 (= x58 x142)) (x92 (= x8 x15)) (x98 (= x8 x124)) (x85 (= x33 x58)) (x20 (= x101 x114)) (x57 (= x157 x53)) (x134 (= x129 x58)) (x41 (= x2 x58)) (x117 (= x106 x157)) (x31 (= x8 x142)) (x38 (= x29 x8)) (x113 (= x157 x65)) (x79 (= x53 x84)) (x9 (= x157 x149)) (x125 (= x2 x114)) (x116 (= x157 x15)) (x16 (= x8 x129)) (x151 (= x84 x68)) (x103 (= x8 x19)) (x110 (= x8 x112)) (x119 (= x157 x60)) (x138 (= x106 x84)) (x12 (= x114 x65)) (x71 (= x114 x68)) (x46 (= x64 x114)) (x144 (= x84 x29)) (x72 (= x25 x58)) (x39 (= x114 x102)) (x150 (= x84 x1)) (x49 (= x129 x157)) (x55 (= x58 x32)) (x111 (= x53 x58)) (x131 (= x106 x114)) (x28 (= x157 x2)) (x54 (= x106 x8)) (x26 (= x68 x157)) (x145 (= x84 x32)) (x22 (= x17 x8)) (x66 (= x32 x157)) (x10 (= x148 x114)) (x94 (= x29 x157)) (x13 (= x114 x149)) (x156 (= x112 x114)) (x153 (= x157 x112)) (x152 (= x88 x114)) (x62 (= x149 x8)) (x109 (= x114 x124)) (x6 (= x19 x114)) (x154 (= x65 x58)) (x143 (= x84 x148)) (x158 (= x88 x84)) (x42 (= x84 x2)) (x44 (= x129 x84)) (x36 (= x84 x101)) (x136 (= x114 x29)) (x97 (= x157 x101)) (x128 (= x25 x157)) (x146 (= x58 x106)) (x18 (= x65 x8)) (x127 (= x19 x157)) (x123 (= x58 x88)) (x5 (= x114 x129)) (x14 (= x58 x149)) (x43 (= x114 x17)) (x73 (= x1 x157)) (x11 (= x114 x32)) (x91 (= x84 x15)) (x99 (= x157 x148)) (x104 (= x33 x8)) (x76 (= x58 x17)) (x63 (= x84 x124)) (x78 (= x19 x84)) (x105 (= x84 x60)) (x67 (= x60 x58)) (x27 (= x53 x114)) (x61 (= x114 x1)) (x3 (= x8 x53)) (x115 (= x15 x114)) (x121 (= x157 x140)) (x132 (= x65 x84)) (x37 (= x157 x33)) (x56 (= x8 x25)) (x59 (= x64 x84)) (x93 (= x140 x84))) (and (and (or (or (and x63 x63) (or (or (or (and x93 x147) (and x135 x42)) (and x145 x7)) (and x75 x44))) (or (or (or (or (or (or (and x144 x105) (or (and x143 x36) (and x158 x158))) (and x59 x138)) (and x147 x93)) (or (or (or (or (and x78 x78) (and x36 x143)) (and x151 x132)) (and x155 x79)) (and x135 x42))) (or (or (or (and x126 x126) (or (and x151 x132) (and x144 x105))) (and x51 x91)) (and x145 x7))) (or (and x75 x44) (or (and x150 x150) (or (or (and x138 x59) (and x155 x79)) (and x91 x51)))))) (and (and (or (or (or (or (or (or (and x37 x57) (and x4 x117)) (and x116 x139)) (and x73 x73)) (and x128 x49)) (or (or (or (or (or (and x94 x119) (or (and x80 x80) (and x99 x97))) (and x4 x117)) (and x153 x121)) (or (or (or (or (and x97 x99) (and x127 x127)) (and x113 x26)) (and x57 x37)) (and x82 x28))) (or (or (and x116 x139) (or (or (and x113 x26) (and x94 x119)) (and x70 x70))) (and x9 x66)))) (or (and x74 x74) (or (and x128 x49) (or (or (and x121 x153) (and x82 x28)) (and x9 x66))))) (or (or (and x109 x109) (or (and x87 x5) (or (or (and x125 x39) (and x156 x122)) (and x13 x11)))) (or (or (and x87 x5) (or (and x61 x61) (or (and x115 x43) (or (and x46 x131) (and x27 x40))))) (or (or (or (and x125 x39) (or (or (and x71 x12) (or (and x20 x10) (and x6 x6))) (and x40 x27))) (or (and x156 x122) (or (and x131 x46) (or (or (and x20 x10) (and x152 x152)) (and x159 x136))))) (or (or (or (and x86 x86) (or (and x71 x12) (and x159 x136))) (and x43 x115)) (and x13 x11)))))) (or (or (or (and x56 x16) (or (and x89 x89) (or (or (and x45 x54) (and x3 x104)) (and x92 x22)))) (or (or (or (or (or (or (and x34 x24) (and x103 x103)) (and x48 x18)) (and x3 x104)) (and x130 x118)) (or (and x110 x81) (or (and x54 x45) (or (and x38 x120) (or (and x95 x95) (and x34 x24)))))) (or (and x62 x83) (or (or (or (and x38 x120) (and x18 x48)) (and x31 x31)) (and x22 x92))))) (or (and x98 x98) (or (or (or (and x118 x130) (and x81 x110)) (and x62 x83)) (and x56 x16)))))) (or (or (or (or (or (or (or (or (and x90 x107) (and x123 x123)) (and x67 x23)) (and x146 x21)) (and x96 x52)) (or (and x41 x47) (or (and x85 x111) (or (or (and x90 x107) (and x50 x50)) (and x133 x154))))) (or (and x55 x14) (or (and x76 x108) (or (or (and x133 x154) (and x67 x23)) (and x137 x137))))) (or (or (or (and x76 x108) (or (and x111 x85) (and x21 x146))) (and x77 x77)) (and x72 x134))) (or (and x141 x141) (or (and x72 x134) (or (or (and x47 x41) (and x52 x96)) (and x14 x55)))))))))
(assert (let ((x46 (x35 x8 x157)) (x125 (x35 x84 x8)) (x136 (x35 x157 x8)) (x39 (x35 x84 x157)) (x156 (x35 x84 x58)) (x12 (x35 x114 x58)) (x40 (x35 x157 x58)) (x131 (x35 x8 x8)) (x11 (x35 x58 x114)) (x27 (x35 x8 x114)) (x152 (x35 x114 x84)) (x115 (x35 x8 x84)) (x122 (x35 x84 x84)) (x13 (x35 x58 x157)) (x61 (x35 x84 x114)) (x5 (x35 x58 x84)) (x43 (x35 x8 x58)) (x6 (x35 x114 x114)) (x71 (x35 x157 x114)) (x86 (x35 x157 x84)) (x87 (x35 x58 x8)) (x10 (x35 x114 x8)) (x159 (x35 x157 x157)) (x20 (x35 x114 x157)) (x109 (x35 x58 x58))) (and (and (and (and (and (and (and (and (or (or (or (= x6 x8) (or (= x6 x157) (= x6 x114))) (= x84 x6)) (= x6 x58)) (or (= x20 x58) (or (= x84 x20) (or (= x20 x8) (or (= x20 x114) (= x157 x20)))))) (or (or (or (= x10 x8) (or (= x10 x157) (= x114 x10))) (= x84 x10)) (= x58 x10))) (or (or (or (= x8 x152) (or (= x152 x114) (= x152 x157))) (= x152 x84)) (= x152 x58))) (or (= x12 x58) (or (or (= x8 x12) (or (= x157 x12) (= x114 x12))) (= x12 x84)))) (and (or (= x40 x58) (or (= x84 x40) (or (or (= x40 x157) (= x40 x114)) (= x8 x40)))) (and (and (or (or (= x84 x136) (or (= x8 x136) (or (= x136 x157) (= x114 x136)))) (= x58 x136)) (and (or (= x58 x159) (or (= x84 x159) (or (= x8 x159) (or (= x159 x114) (= x159 x157))))) (or (= x71 x58) (or (= x71 x84) (or (= x71 x8) (or (= x71 x114) (= x157 x71))))))) (or (or (= x84 x86) (or (= x8 x86) (or (= x157 x86) (= x114 x86)))) (= x86 x58))))) (and (or (or (or (= x8 x43) (or (= x114 x43) (= x43 x157))) (= x43 x84)) (= x58 x43)) (and (or (= x115 x58) (or (= x84 x115) (or (= x115 x8) (or (= x157 x115) (= x114 x115))))) (and (or (or (= x84 x131) (or (or (= x131 x157) (= x114 x131)) (= x131 x8))) (= x131 x58)) (and (or (or (or (or (= x46 x157) (= x46 x114)) (= x8 x46)) (= x46 x84)) (= x58 x46)) (or (= x58 x27) (or (or (= x27 x8) (or (= x157 x27) (= x27 x114))) (= x84 x27)))))))) (and (and (and (and (or (or (= x84 x39) (or (= x8 x39) (or (= x39 x114) (= x157 x39)))) (= x39 x58)) (or (or (= x84 x61) (or (= x61 x8) (or (= x61 x114) (= x61 x157)))) (= x58 x61))) (or (= x125 x58) (or (= x125 x84) (or (or (= x125 x157) (= x114 x125)) (= x8 x125))))) (or (= x122 x58) (or (or (or (= x122 x157) (= x122 x114)) (= x8 x122)) (= x122 x84)))) (or (= x156 x58) (or (or (= x8 x156) (or (= x156 x114) (= x157 x156))) (= x84 x156))))) (and (and (and (or (or (or (= x8 x87) (or (= x157 x87) (= x114 x87))) (= x84 x87)) (= x58 x87)) (and (or (or (= x84 x11) (or (= x11 x8) (or (= x11 x114) (= x11 x157)))) (= x58 x11)) (or (or (= x84 x13) (or (or (= x13 x114) (= x157 x13)) (= x8 x13))) (= x58 x13)))) (or (= x5 x58) (or (= x84 x5) (or (= x5 x8) (or (= x157 x5) (= x114 x5)))))) (or (= x109 x58) (or (or (or (= x157 x109) (= x109 x114)) (= x109 x8)) (= x84 x109)))))))
(check-sat)
(exit)
